c strEdges: 189  randomEdges: 441 
c degrees:  2  3 
c girth: 10 max: 8.032766  
c Hgirth mixed MAXCUT instance
c generated from an undirected graph
c to solve unweighted MaxCut
p cnf 140 1260
91 7 0
-91 -7 0
91 72 0
-91 -72 0
91 1 0
-91 -1 0
99 80 0
-99 -80 0
99 56 0
-99 -56 0
99 110 0
-99 -110 0
3 76 0
-3 -76 0
3 55 0
-3 -55 0
3 11 0
-3 -11 0
51 86 0
-51 -86 0
51 40 0
-51 -40 0
51 117 0
-51 -117 0
16 138 0
-16 -138 0
16 45 0
-16 -45 0
130 120 0
-130 -120 0
130 13 0
-130 -13 0
82 139 0
-82 -139 0
82 50 0
-82 -50 0
82 76 0
-82 -76 0
19 131 0
-19 -131 0
19 134 0
-19 -134 0
19 36 0
-19 -36 0
107 25 0
-107 -25 0
107 118 0
-107 -118 0
107 105 0
-107 -105 0
113 11 0
-113 -11 0
113 30 0
-113 -30 0
113 68 0
-113 -68 0
100 38 0
-100 -38 0
100 114 0
-100 -114 0
100 68 0
-100 -68 0
102 121 0
-102 -121 0
102 65 0
-102 -65 0
102 62 0
-102 -62 0
2 103 0
-2 -103 0
2 58 0
-2 -58 0
2 23 0
-2 -23 0
133 114 0
-133 -114 0
133 124 0
-133 -124 0
75 136 0
-75 -136 0
75 87 0
-75 -87 0
75 104 0
-75 -104 0
98 13 0
-98 -13 0
98 80 0
-98 -80 0
98 139 0
-98 -139 0
111 127 0
-111 -127 0
111 118 0
-111 -118 0
111 71 0
-111 -71 0
22 35 0
-22 -35 0
22 127 0
-22 -127 0
22 138 0
-22 -138 0
14 44 0
-14 -44 0
14 79 0
-14 -79 0
14 74 0
-14 -74 0
140 110 0
-140 -110 0
140 55 0
-140 -55 0
140 42 0
-140 -42 0
128 81 0
-128 -81 0
128 31 0
-128 -31 0
67 32 0
-67 -32 0
67 117 0
-67 -117 0
67 35 0
-67 -35 0
96 129 0
-96 -129 0
96 135 0
-96 -135 0
96 122 0
-96 -122 0
115 66 0
-115 -66 0
115 109 0
-115 -109 0
115 58 0
-115 -58 0
47 122 0
-47 -122 0
47 20 0
-47 -20 0
47 125 0
-47 -125 0
77 60 0
-77 -60 0
77 112 0
-77 -112 0
77 120 0
-77 -120 0
90 41 0
-90 -41 0
90 4 0
-90 -4 0
90 87 0
-90 -87 0
126 109 0
-126 -109 0
126 83 0
-126 -83 0
33 34 0
-33 -34 0
33 7 0
-33 -7 0
33 120 0
-33 -120 0
108 17 0
-108 -17 0
108 89 0
-108 -89 0
24 58 0
-24 -58 0
24 124 0
-24 -124 0
27 124 0
-27 -124 0
27 21 0
-27 -21 0
27 104 0
-27 -104 0
95 40 0
-95 -40 0
95 131 0
-95 -131 0
28 79 0
-28 -79 0
28 59 0
-28 -59 0
28 132 0
-28 -132 0
8 125 0
-8 -125 0
8 81 0
-8 -81 0
8 44 0
-8 -44 0
106 30 0
-106 -30 0
106 35 0
-106 -35 0
73 68 0
-73 -68 0
73 83 0
-73 -83 0
63 1 0
-63 -1 0
63 5 0
-63 -5 0
43 134 0
-43 -134 0
43 21 0
-43 -21 0
57 112 0
-57 -112 0
57 45 0
-57 -45 0
57 69 0
-57 -69 0
9 4 0
-9 -4 0
9 109 0
-9 -109 0
61 31 0
-61 -31 0
61 41 0
-61 -41 0
61 69 0
-61 -69 0
116 84 0
-116 -84 0
116 76 0
-116 -76 0
116 31 0
-116 -31 0
26 87 0
-26 -87 0
26 86 0
-26 -86 0
54 105 0
-54 -105 0
54 136 0
-54 -136 0
54 13 0
-54 -13 0
49 42 0
-49 -42 0
49 62 0
-49 -62 0
101 45 0
-101 -45 0
101 119 0
-101 -119 0
101 38 0
-101 -38 0
46 59 0
-46 -59 0
46 131 0
-46 -131 0
46 112 0
-46 -112 0
52 55 0
-52 -55 0
52 134 0
-52 -134 0
18 83 0
-18 -83 0
18 132 0
-18 -132 0
137 56 0
-137 -56 0
137 34 0
-137 -34 0
97 89 0
-97 -89 0
97 74 0
-97 -74 0
78 5 0
-78 -5 0
78 32 0
-78 -32 0
78 79 0
-78 -79 0
29 71 0
-29 -71 0
29 110 0
-29 -110 0
29 66 0
-29 -66 0
92 72 0
-92 -72 0
92 129 0
-92 -129 0
92 4 0
-92 -4 0
123 62 0
-123 -62 0
123 105 0
-123 -105 0
123 114 0
-123 -114 0
12 69 0
-12 -69 0
12 103 0
-12 -103 0
12 121 0
-12 -121 0
94 20 0
-94 -20 0
94 42 0
-94 -42 0
94 60 0
-94 -60 0
93 74 0
-93 -74 0
93 71 0
-93 -71 0
93 86 0
-93 -86 0
10 36 0
-10 -36 0
10 25 0
-10 -25 0
10 23 0
-10 -23 0
88 50 0
-88 -50 0
88 135 0
-88 -135 0
88 121 0
-88 -121 0
53 21 0
-53 -21 0
53 138 0
-53 -138 0
37 104 0
-37 -104 0
37 34 0
-37 -34 0
37 44 0
-37 -44 0
85 118 0
-85 -118 0
85 5 0
-85 -5 0
85 84 0
-85 -84 0
39 23 0
-39 -23 0
39 17 0
-39 -17 0
39 20 0
-39 -20 0
48 65 0
-48 -65 0
48 30 0
-48 -30 0
48 7 0
-48 -7 0
6 117 0
-6 -117 0
6 38 0
-6 -38 0
6 122 0
-6 -122 0
64 119 0
-64 -119 0
64 89 0
-64 -89 0
64 1 0
-64 -1 0
15 135 0
-15 -135 0
15 127 0
-15 -127 0
70 132 0
-70 -132 0
70 139 0
-70 -139 0
70 17 0
-70 -17 0
128 90 0
-128 -90 0
115 104 0
-115 -104 0
39 124 0
-39 -124 0
29 15 0
-29 -15 0
131 72 0
-131 -72 0
26 4 0
-26 -4 0
19 110 0
-19 -110 0
99 98 0
-99 -98 0
40 89 0
-40 -89 0
46 58 0
-46 -58 0
15 34 0
-15 -34 0
22 46 0
-22 -46 0
125 5 0
-125 -5 0
19 84 0
-19 -84 0
137 70 0
-137 -70 0
121 79 0
-121 -79 0
8 78 0
-8 -78 0
100 95 0
-100 -95 0
129 59 0
-129 -59 0
10 41 0
-10 -41 0
47 112 0
-47 -112 0
107 55 0
-107 -55 0
91 22 0
-91 -22 0
15 118 0
-15 -118 0
14 49 0
-14 -49 0
15 132 0
-15 -132 0
130 41 0
-130 -41 0
8 26 0
-8 -26 0
73 138 0
-73 -138 0
93 23 0
-93 -23 0
2 70 0
-2 -70 0
88 109 0
-88 -109 0
77 124 0
-77 -124 0
140 62 0
-140 -62 0
32 109 0
-32 -109 0
10 7 0
-10 -7 0
28 124 0
-28 -124 0
1 119 0
-1 -119 0
67 89 0
-67 -89 0
14 15 0
-14 -15 0
82 44 0
-82 -44 0
85 86 0
-85 -86 0
133 135 0
-133 -135 0
52 125 0
-52 -125 0
130 86 0
-130 -86 0
67 36 0
-67 -36 0
41 5 0
-41 -5 0
95 46 0
-95 -46 0
98 34 0
-98 -34 0
75 85 0
-75 -85 0
67 23 0
-67 -23 0
113 32 0
-113 -32 0
47 85 0
-47 -85 0
90 54 0
-90 -54 0
79 105 0
-79 -105 0
75 124 0
-75 -124 0
2 54 0
-2 -54 0
75 140 0
-75 -140 0
63 40 0
-63 -40 0
101 125 0
-101 -125 0
95 85 0
-95 -85 0
85 25 0
-85 -25 0
80 58 0
-80 -58 0
52 13 0
-52 -13 0
81 5 0
-81 -5 0
52 60 0
-52 -60 0
97 41 0
-97 -41 0
45 59 0
-45 -59 0
3 7 0
-3 -7 0
52 68 0
-52 -68 0
15 139 0
-15 -139 0
43 119 0
-43 -119 0
138 127 0
-138 -127 0
111 39 0
-111 -39 0
82 38 0
-82 -38 0
76 129 0
-76 -129 0
61 52 0
-61 -52 0
52 105 0
-52 -105 0
128 73 0
-128 -73 0
14 42 0
-14 -42 0
18 35 0
-18 -35 0
120 74 0
-120 -74 0
128 135 0
-128 -135 0
116 44 0
-116 -44 0
88 21 0
-88 -21 0
51 37 0
-51 -37 0
46 135 0
-46 -135 0
24 120 0
-24 -120 0
1 89 0
-1 -89 0
48 134 0
-48 -134 0
67 29 0
-67 -29 0
123 12 0
-123 -12 0
61 79 0
-61 -79 0
3 86 0
-3 -86 0
92 6 0
-92 -6 0
35 74 0
-35 -74 0
46 41 0
-46 -41 0
19 139 0
-19 -139 0
51 95 0
-51 -95 0
2 120 0
-2 -120 0
139 1 0
-139 -1 0
126 63 0
-126 -63 0
92 59 0
-92 -59 0
73 117 0
-73 -117 0
51 48 0
-51 -48 0
127 35 0
-127 -35 0
6 13 0
-6 -13 0
12 93 0
-12 -93 0
35 4 0
-35 -4 0
54 34 0
-54 -34 0
138 1 0
-138 -1 0
76 56 0
-76 -56 0
19 46 0
-19 -46 0
127 72 0
-127 -72 0
82 80 0
-82 -80 0
125 89 0
-125 -89 0
130 112 0
-130 -112 0
110 21 0
-110 -21 0
28 48 0
-28 -48 0
103 110 0
-103 -110 0
75 7 0
-75 -7 0
25 32 0
-25 -32 0
51 13 0
-51 -13 0
90 42 0
-90 -42 0
16 75 0
-16 -75 0
102 35 0
-102 -35 0
4 84 0
-4 -84 0
64 40 0
-64 -40 0
100 66 0
-100 -66 0
140 115 0
-140 -115 0
2 45 0
-2 -45 0
12 70 0
-12 -70 0
24 59 0
-24 -59 0
97 32 0
-97 -32 0
113 123 0
-113 -123 0
91 34 0
-91 -34 0
99 49 0
-99 -49 0
106 13 0
-106 -13 0
99 68 0
-99 -68 0
102 92 0
-102 -92 0
38 68 0
-38 -68 0
51 132 0
-51 -132 0
92 139 0
-92 -139 0
8 54 0
-8 -54 0
98 70 0
-98 -70 0
14 129 0
-14 -129 0
19 62 0
-19 -62 0
25 34 0
-25 -34 0
108 31 0
-108 -31 0
81 109 0
-81 -109 0
111 1 0
-111 -1 0
116 20 0
-116 -20 0
101 46 0
-101 -46 0
66 69 0
-66 -69 0
9 80 0
-9 -80 0
85 59 0
-85 -59 0
130 110 0
-130 -110 0
17 119 0
-17 -119 0
27 95 0
-27 -95 0
78 60 0
-78 -60 0
43 49 0
-43 -49 0
19 63 0
-19 -63 0
16 86 0
-16 -86 0
24 18 0
-24 -18 0
126 25 0
-126 -25 0
73 104 0
-73 -104 0
103 118 0
-103 -118 0
88 38 0
-88 -38 0
116 53 0
-116 -53 0
115 15 0
-115 -15 0
26 132 0
-26 -132 0
101 21 0
-101 -21 0
138 132 0
-138 -132 0
48 139 0
-48 -139 0
75 121 0
-75 -121 0
58 62 0
-58 -62 0
115 68 0
-115 -68 0
84 71 0
-84 -71 0
11 114 0
-11 -114 0
12 62 0
-12 -62 0
67 33 0
-67 -33 0
2 35 0
-2 -35 0
31 87 0
-31 -87 0
77 6 0
-77 -6 0
8 34 0
-8 -34 0
139 81 0
-139 -81 0
60 72 0
-60 -72 0
130 36 0
-130 -36 0
101 97 0
-101 -97 0
22 125 0
-22 -125 0
12 68 0
-12 -68 0
92 88 0
-92 -88 0
102 32 0
-102 -32 0
49 101 0
-49 -101 0
51 20 0
-51 -20 0
133 12 0
-133 -12 0
91 18 0
-91 -18 0
16 5 0
-16 -5 0
49 74 0
-49 -74 0
134 83 0
-134 -83 0
26 72 0
-26 -72 0
124 45 0
-124 -45 0
39 44 0
-39 -44 0
76 69 0
-76 -69 0
15 4 0
-15 -4 0
102 129 0
-102 -129 0
67 139 0
-67 -139 0
44 21 0
-44 -21 0
111 53 0
-111 -53 0
96 18 0
-96 -18 0
67 54 0
-67 -54 0
6 34 0
-6 -34 0
17 5 0
-17 -5 0
97 56 0
-97 -56 0
4 89 0
-4 -89 0
63 50 0
-63 -50 0
110 72 0
-110 -72 0
94 70 0
-94 -70 0
27 135 0
-27 -135 0
81 135 0
-81 -135 0
63 11 0
-63 -11 0
30 104 0
-30 -104 0
24 88 0
-24 -88 0
15 105 0
-15 -105 0
43 137 0
-43 -137 0
6 15 0
-6 -15 0
53 25 0
-53 -25 0
110 31 0
-110 -31 0
61 123 0
-61 -123 0
123 45 0
-123 -45 0
120 134 0
-120 -134 0
113 83 0
-113 -83 0
68 134 0
-68 -134 0
3 21 0
-3 -21 0
68 1 0
-68 -1 0
19 14 0
-19 -14 0
2 98 0
-2 -98 0
61 74 0
-61 -74 0
26 84 0
-26 -84 0
93 32 0
-93 -32 0
3 52 0
-3 -52 0
107 53 0
-107 -53 0
39 69 0
-39 -69 0
90 79 0
-90 -79 0
34 79 0
-34 -79 0
78 112 0
-78 -112 0
99 4 0
-99 -4 0
4 20 0
-4 -20 0
14 5 0
-14 -5 0
92 93 0
-92 -93 0
115 77 0
-115 -77 0
32 30 0
-32 -30 0
75 14 0
-75 -14 0
133 137 0
-133 -137 0
8 72 0
-8 -72 0
140 35 0
-140 -35 0
107 71 0
-107 -71 0
114 30 0
-114 -30 0
77 121 0
-77 -121 0
67 11 0
-67 -11 0
130 125 0
-130 -125 0
98 5 0
-98 -5 0
14 25 0
-14 -25 0
100 10 0
-100 -10 0
113 67 0
-113 -67 0
98 59 0
-98 -59 0
138 65 0
-138 -65 0
126 132 0
-126 -132 0
111 70 0
-111 -70 0
120 104 0
-120 -104 0
96 31 0
-96 -31 0
26 64 0
-26 -64 0
60 34 0
-60 -34 0
20 74 0
-20 -74 0
78 45 0
-78 -45 0
11 5 0
-11 -5 0
97 39 0
-97 -39 0
8 21 0
-8 -21 0
7 5 0
-7 -5 0
64 79 0
-64 -79 0
22 114 0
-22 -114 0
110 84 0
-110 -84 0
12 72 0
-12 -72 0
75 125 0
-75 -125 0
24 109 0
-24 -109 0
101 93 0
-101 -93 0
88 114 0
-88 -114 0
136 32 0
-136 -32 0
24 26 0
-24 -26 0
102 75 0
-102 -75 0
51 47 0
-51 -47 0
88 69 0
-88 -69 0
123 11 0
-123 -11 0
52 112 0
-52 -112 0
29 114 0
-29 -114 0
28 30 0
-28 -30 0
124 89 0
-124 -89 0
111 43 0
-111 -43 0
126 5 0
-126 -5 0
9 12 0
-9 -12 0
139 83 0
-139 -83 0
44 4 0
-44 -4 0
107 81 0
-107 -81 0
128 54 0
-128 -54 0
94 44 0
-94 -44 0
121 21 0
-121 -21 0
100 126 0
-100 -126 0
80 13 0
-80 -13 0
16 41 0
-16 -41 0
130 121 0
-130 -121 0
95 80 0
-95 -80 0
97 44 0
-97 -44 0
107 48 0
-107 -48 0
95 11 0
-95 -11 0
79 112 0
-79 -112 0
128 88 0
-128 -88 0
108 43 0
-108 -43 0
95 78 0
-95 -78 0
114 21 0
-114 -21 0
128 34 0
-128 -34 0
14 131 0
-14 -131 0
121 69 0
-121 -69 0
99 81 0
-99 -81 0
128 80 0
-128 -80 0
15 87 0
-15 -87 0
133 44 0
-133 -44 0
138 21 0
-138 -21 0
68 5 0
-68 -5 0
52 88 0
-52 -88 0
3 61 0
-3 -61 0
13 125 0
-13 -125 0
115 132 0
-115 -132 0
29 36 0
-29 -36 0
10 44 0
-10 -44 0
28 64 0
-28 -64 0
86 32 0
-86 -32 0
15 86 0
-15 -86 0
51 11 0
-51 -11 0
53 50 0
-53 -50 0
85 68 0
-85 -68 0
99 42 0
-99 -42 0
16 62 0
-16 -62 0
17 89 0
-17 -89 0
37 23 0
-37 -23 0
47 1 0
-47 -1 0
47 23 0
-47 -23 0
25 112 0
-25 -112 0
52 83 0
-52 -83 0
99 15 0
-99 -15 0
7 129 0
-7 -129 0
10 56 0
-10 -56 0
130 66 0
-130 -66 0
40 134 0
-40 -134 0
37 58 0
-37 -58 0
77 69 0
-77 -69 0
111 12 0
-111 -12 0
57 12 0
-57 -12 0
19 96 0
-19 -96 0
11 20 0
-11 -20 0
137 65 0
-137 -65 0
5 69 0
-5 -69 0
73 55 0
-73 -55 0
88 34 0
-88 -34 0
107 65 0
-107 -65 0
29 123 0
-29 -123 0
69 36 0
-69 -36 0
47 56 0
-47 -56 0
53 76 0
-53 -76 0
110 60 0
-110 -60 0
13 71 0
-13 -71 0
109 119 0
-109 -119 0
85 45 0
-85 -45 0
100 45 0
-100 -45 0
103 55 0
-103 -55 0
27 64 0
-27 -64 0
95 92 0
-95 -92 0
4 118 0
-4 -118 0
101 136 0
-101 -136 0
79 36 0
-79 -36 0
108 71 0
-108 -71 0
16 89 0
-16 -89 0
68 56 0
-68 -56 0
124 72 0
-124 -72 0
3 113 0
-3 -113 0
82 20 0
-82 -20 0
54 125 0
-54 -125 0
98 76 0
-98 -76 0
133 132 0
-133 -132 0
90 71 0
-90 -71 0
77 4 0
-77 -4 0
90 12 0
-90 -12 0
110 89 0
-110 -89 0
103 109 0
-103 -109 0
18 131 0
-18 -131 0
137 119 0
-137 -119 0
96 27 0
-96 -27 0
94 121 0
-94 -121 0
88 64 0
-88 -64 0
75 57 0
-75 -57 0
67 90 0
-67 -90 0
67 27 0
-67 -27 0
108 11 0
-108 -11 0
18 39 0
-18 -39 0
26 36 0
-26 -36 0
99 17 0
-99 -17 0
6 138 0
-6 -138 0
110 30 0
-110 -30 0
51 108 0
-51 -108 0
90 135 0
-90 -135 0
24 6 0
-24 -6 0
124 135 0
-124 -135 0
63 10 0
-63 -10 0
43 37 0
-43 -37 0
99 84 0
-99 -84 0
80 35 0
-80 -35 0
140 85 0
-140 -85 0
78 29 0
-78 -29 0
77 25 0
-77 -25 0
57 50 0
-57 -50 0
123 55 0
-123 -55 0
130 10 0
-130 -10 0
131 30 0
-131 -30 0
78 125 0
-78 -125 0
134 74 0
-134 -74 0
76 120 0
-76 -120 0
38 65 0
-38 -65 0
127 17 0
-127 -17 0
93 42 0
-93 -42 0
67 6 0
-67 -6 0
90 37 0
-90 -37 0
139 23 0
-139 -23 0
94 87 0
-94 -87 0
79 56 0
-79 -56 0
48 58 0
-48 -58 0
67 118 0
-67 -118 0
75 138 0
-75 -138 0
82 4 0
-82 -4 0
96 71 0
-96 -71 0
128 68 0
-128 -68 0
138 40 0
-138 -40 0
15 41 0
-15 -41 0
